# Solution for model GNN
# Objective value = 1.6335524303322018e+00
A[0,0] 1
A[0,1] 1
A[0,2] 1
A[0,3] 1
A[1,0] 1
A[1,1] 1
A[1,2] 1
A[1,3] 1
A[2,0] 1
A[2,1] 1
A[2,2] 1
A[2,3] 1
A[3,0] 1
A[3,1] 1
A[3,2] 1
A[3,3] 1
x[0,0] 1
x[0,1] 0
x[0,2] 0
x[0,3] 0
x[0,4] 0
x[0,5] 0
x[0,6] 0
x[0,7] 1
x[0,8] 0
x[0,9] 0
x[0,10] 1
x[0,11] 0
x[0,12] 0
x[0,13] 0
x[1,0] 1
x[1,1] 0
x[1,2] 0
x[1,3] 0
x[1,4] 0
x[1,5] 0
x[1,6] 0
x[1,7] 1
x[1,8] 0
x[1,9] 0
x[1,10] 1
x[1,11] 0
x[1,12] 0
x[1,13] 0
x[2,0] 1
x[2,1] 0
x[2,2] 0
x[2,3] 0
x[2,4] 0
x[2,5] 0
x[2,6] 0
x[2,7] 1
x[2,8] 0
x[2,9] 0
x[2,10] 1
x[2,11] 0
x[2,12] 0
x[2,13] 0
x[3,0] 1
x[3,1] 0
x[3,2] 0
x[3,3] 0
x[3,4] 0
x[3,5] 0
x[3,6] 0
x[3,7] 1
x[3,8] 0
x[3,9] 0
x[3,10] 1
x[3,11] 0
x[3,12] 0
x[3,13] 0
c[0,0,0] 0
c[0,0,1] 0
c[0,0,2] 0
c[0,0,3] 0
c[0,0,4] 0
c[0,0,5] 0
c[0,0,6] 0
c[0,0,7] 0
c[0,0,8] 0
c[0,0,9] 0
c[0,0,10] 0
c[0,0,11] 0
c[0,0,12] 0
c[0,0,13] 0
c[0,0,14] 0
c[0,0,15] 0
c[0,0,16] 0
c[0,0,17] 0
c[0,0,18] 0
c[0,0,19] 0
c[0,0,20] 0
c[0,0,21] 0
c[0,0,22] 0
c[0,0,23] 0
c[0,0,24] 1
c[0,1,0] 0
c[0,1,1] 0
c[0,1,2] 0
c[0,1,3] 0
c[0,1,4] 0
c[0,1,5] 0
c[0,1,6] 0
c[0,1,7] 0
c[0,1,8] 0
c[0,1,9] 0
c[0,1,10] 0
c[0,1,11] 0
c[0,1,12] 0
c[0,1,13] 0
c[0,1,14] 0
c[0,1,15] 0
c[0,1,16] 0
c[0,1,17] 0
c[0,1,18] 0
c[0,1,19] 0
c[0,1,20] 0
c[0,1,21] 0
c[0,1,22] 0
c[0,1,23] 0
c[0,1,24] 1
c[0,2,0] 0
c[0,2,1] 0
c[0,2,2] 0
c[0,2,3] 0
c[0,2,4] 0
c[0,2,5] 0
c[0,2,6] 0
c[0,2,7] 0
c[0,2,8] 0
c[0,2,9] 0
c[0,2,10] 0
c[0,2,11] 0
c[0,2,12] 0
c[0,2,13] 0
c[0,2,14] 0
c[0,2,15] 0
c[0,2,16] 0
c[0,2,17] 0
c[0,2,18] 0
c[0,2,19] 0
c[0,2,20] 0
c[0,2,21] 0
c[0,2,22] 0
c[0,2,23] 0
c[0,2,24] 1
c[0,3,0] 0
c[0,3,1] 0
c[0,3,2] 0
c[0,3,3] 0
c[0,3,4] 0
c[0,3,5] 0
c[0,3,6] 0
c[0,3,7] 0
c[0,3,8] 0
c[0,3,9] 0
c[0,3,10] 0
c[0,3,11] 0
c[0,3,12] 0
c[0,3,13] 0
c[0,3,14] 0
c[0,3,15] 0
c[0,3,16] 0
c[0,3,17] 0
c[0,3,18] 0
c[0,3,19] 0
c[0,3,20] 0
c[0,3,21] 0
c[0,3,22] 0
c[0,3,23] 0
c[0,3,24] 1
c[1,0,0] 0
c[1,0,1] 0
c[1,0,2] 0
c[1,0,3] 0
c[1,0,4] 0
c[1,0,5] 0
c[1,0,6] 0
c[1,0,7] 0
c[1,0,8] 0
c[1,0,9] 0
c[1,0,10] 0
c[1,0,11] 0
c[1,0,12] 0
c[1,0,13] 0
c[1,0,14] 0
c[1,0,15] 0
c[1,0,16] 0
c[1,0,17] 0
c[1,0,18] 0
c[1,0,19] 0
c[1,0,20] 0
c[1,0,21] 0
c[1,0,22] 0
c[1,0,23] 0
c[1,0,24] 1
c[1,1,0] 0
c[1,1,1] 0
c[1,1,2] 0
c[1,1,3] 0
c[1,1,4] 0
c[1,1,5] 0
c[1,1,6] 0
c[1,1,7] 0
c[1,1,8] 0
c[1,1,9] 0
c[1,1,10] 0
c[1,1,11] 0
c[1,1,12] 0
c[1,1,13] 0
c[1,1,14] 0
c[1,1,15] 0
c[1,1,16] 0
c[1,1,17] 0
c[1,1,18] 0
c[1,1,19] 0
c[1,1,20] 0
c[1,1,21] 0
c[1,1,22] 0
c[1,1,23] 0
c[1,1,24] 1
c[1,2,0] 0
c[1,2,1] 0
c[1,2,2] 0
c[1,2,3] 0
c[1,2,4] 0
c[1,2,5] 0
c[1,2,6] 0
c[1,2,7] 0
c[1,2,8] 0
c[1,2,9] 0
c[1,2,10] 0
c[1,2,11] 0
c[1,2,12] 0
c[1,2,13] 0
c[1,2,14] 0
c[1,2,15] 0
c[1,2,16] 0
c[1,2,17] 0
c[1,2,18] 0
c[1,2,19] 0
c[1,2,20] 0
c[1,2,21] 0
c[1,2,22] 0
c[1,2,23] 0
c[1,2,24] 1
c[1,3,0] 0
c[1,3,1] 0
c[1,3,2] 0
c[1,3,3] 0
c[1,3,4] 0
c[1,3,5] 0
c[1,3,6] 0
c[1,3,7] 0
c[1,3,8] 0
c[1,3,9] 0
c[1,3,10] 0
c[1,3,11] 0
c[1,3,12] 0
c[1,3,13] 0
c[1,3,14] 0
c[1,3,15] 0
c[1,3,16] 0
c[1,3,17] 0
c[1,3,18] 0
c[1,3,19] 0
c[1,3,20] 0
c[1,3,21] 0
c[1,3,22] 0
c[1,3,23] 0
c[1,3,24] 1
c[2,0,0] 0
c[2,0,1] 0
c[2,0,2] 0
c[2,0,3] 0
c[2,0,4] 0
c[2,0,5] 0
c[2,0,6] 0
c[2,0,7] 0
c[2,0,8] 0
c[2,0,9] 0
c[2,0,10] 0
c[2,0,11] 0
c[2,0,12] 0
c[2,0,13] 0
c[2,0,14] 0
c[2,0,15] 0
c[2,0,16] 0
c[2,0,17] 0
c[2,0,18] 0
c[2,0,19] 0
c[2,0,20] 0
c[2,0,21] 0
c[2,0,22] 0
c[2,0,23] 0
c[2,0,24] 1
c[2,1,0] 0
c[2,1,1] 0
c[2,1,2] 0
c[2,1,3] 0
c[2,1,4] 0
c[2,1,5] 0
c[2,1,6] 0
c[2,1,7] 0
c[2,1,8] 0
c[2,1,9] 0
c[2,1,10] 0
c[2,1,11] 0
c[2,1,12] 0
c[2,1,13] 0
c[2,1,14] 0
c[2,1,15] 0
c[2,1,16] 0
c[2,1,17] 0
c[2,1,18] 0
c[2,1,19] 0
c[2,1,20] 0
c[2,1,21] 0
c[2,1,22] 0
c[2,1,23] 0
c[2,1,24] 1
c[2,2,0] 0
c[2,2,1] 0
c[2,2,2] 0
c[2,2,3] 0
c[2,2,4] 0
c[2,2,5] 0
c[2,2,6] 0
c[2,2,7] 0
c[2,2,8] 0
c[2,2,9] 0
c[2,2,10] 0
c[2,2,11] 0
c[2,2,12] 0
c[2,2,13] 0
c[2,2,14] 0
c[2,2,15] 0
c[2,2,16] 0
c[2,2,17] 0
c[2,2,18] 0
c[2,2,19] 0
c[2,2,20] 0
c[2,2,21] 0
c[2,2,22] 0
c[2,2,23] 0
c[2,2,24] 1
c[2,3,0] 0
c[2,3,1] 0
c[2,3,2] 0
c[2,3,3] 0
c[2,3,4] 0
c[2,3,5] 0
c[2,3,6] 0
c[2,3,7] 0
c[2,3,8] 0
c[2,3,9] 0
c[2,3,10] 0
c[2,3,11] 0
c[2,3,12] 0
c[2,3,13] 0
c[2,3,14] 0
c[2,3,15] 0
c[2,3,16] 0
c[2,3,17] 0
c[2,3,18] 0
c[2,3,19] 0
c[2,3,20] 0
c[2,3,21] 0
c[2,3,22] 0
c[2,3,23] 0
c[2,3,24] 1
c[3,0,0] 0
c[3,0,1] 0
c[3,0,2] 0
c[3,0,3] 0
c[3,0,4] 0
c[3,0,5] 0
c[3,0,6] 0
c[3,0,7] 0
c[3,0,8] 0
c[3,0,9] 0
c[3,0,10] 0
c[3,0,11] 0
c[3,0,12] 0
c[3,0,13] 0
c[3,0,14] 0
c[3,0,15] 0
c[3,0,16] 0
c[3,0,17] 0
c[3,0,18] 0
c[3,0,19] 0
c[3,0,20] 0
c[3,0,21] 0
c[3,0,22] 0
c[3,0,23] 0
c[3,0,24] 1
c[3,1,0] 0
c[3,1,1] 0
c[3,1,2] 0
c[3,1,3] 0
c[3,1,4] 0
c[3,1,5] 0
c[3,1,6] 0
c[3,1,7] 0
c[3,1,8] 0
c[3,1,9] 0
c[3,1,10] 0
c[3,1,11] 0
c[3,1,12] 0
c[3,1,13] 0
c[3,1,14] 0
c[3,1,15] 0
c[3,1,16] 0
c[3,1,17] 0
c[3,1,18] 0
c[3,1,19] 0
c[3,1,20] 0
c[3,1,21] 0
c[3,1,22] 0
c[3,1,23] 0
c[3,1,24] 1
c[3,2,0] 0
c[3,2,1] 0
c[3,2,2] 0
c[3,2,3] 0
c[3,2,4] 0
c[3,2,5] 0
c[3,2,6] 0
c[3,2,7] 0
c[3,2,8] 0
c[3,2,9] 0
c[3,2,10] 0
c[3,2,11] 0
c[3,2,12] 0
c[3,2,13] 0
c[3,2,14] 0
c[3,2,15] 0
c[3,2,16] 0
c[3,2,17] 0
c[3,2,18] 0
c[3,2,19] 0
c[3,2,20] 0
c[3,2,21] 0
c[3,2,22] 0
c[3,2,23] 0
c[3,2,24] 1
c[3,3,0] 0
c[3,3,1] 0
c[3,3,2] 0
c[3,3,3] 0
c[3,3,4] 0
c[3,3,5] 0
c[3,3,6] 0
c[3,3,7] 0
c[3,3,8] 0
c[3,3,9] 0
c[3,3,10] 0
c[3,3,11] 0
c[3,3,12] 0
c[3,3,13] 0
c[3,3,14] 0
c[3,3,15] 0
c[3,3,16] 0
c[3,3,17] 0
c[3,3,18] 0
c[3,3,19] 0
c[3,3,20] 0
c[3,3,21] 0
c[3,3,22] 0
c[3,3,23] 0
c[3,3,24] 1
b[0,0,0] 0
b[0,0,1] 0
b[0,0,2] 0
b[0,0,3] 0
b[0,0,4] 0
b[0,0,5] 0
b[0,0,6] 0
b[0,0,7] 0
b[0,0,8] 0
b[0,0,9] 0
b[0,0,10] 0
b[0,0,11] 0
b[0,0,12] 0
b[0,0,13] 0
b[0,1,0] 0
b[0,1,1] 0
b[0,1,2] 0
b[0,1,3] 0
b[0,1,4] 0
b[0,1,5] 0
b[0,1,6] 0
b[0,1,7] 0
b[0,1,8] 0
b[0,1,9] 0
b[0,1,10] 0
b[0,1,11] 0
b[0,1,12] 0
b[0,1,13] 0
b[0,2,0] 0
b[0,2,1] 0
b[0,2,2] 0
b[0,2,3] 0
b[0,2,4] 0
b[0,2,5] 0
b[0,2,6] 0
b[0,2,7] 0
b[0,2,8] 0
b[0,2,9] 0
b[0,2,10] 0
b[0,2,11] 0
b[0,2,12] 0
b[0,2,13] 0
b[0,3,0] 0
b[0,3,1] 0
b[0,3,2] 0
b[0,3,3] 0
b[0,3,4] 0
b[0,3,5] 0
b[0,3,6] 0
b[0,3,7] 0
b[0,3,8] 0
b[0,3,9] 0
b[0,3,10] 0
b[0,3,11] 0
b[0,3,12] 0
b[0,3,13] 0
b[1,0,0] 0
b[1,0,1] 0
b[1,0,2] 0
b[1,0,3] 0
b[1,0,4] 0
b[1,0,5] 0
b[1,0,6] 0
b[1,0,7] 0
b[1,0,8] 0
b[1,0,9] 0
b[1,0,10] 0
b[1,0,11] 0
b[1,0,12] 0
b[1,0,13] 0
b[1,1,0] 0
b[1,1,1] 0
b[1,1,2] 0
b[1,1,3] 0
b[1,1,4] 0
b[1,1,5] 0
b[1,1,6] 0
b[1,1,7] 0
b[1,1,8] 0
b[1,1,9] 0
b[1,1,10] 0
b[1,1,11] 0
b[1,1,12] 0
b[1,1,13] 0
b[1,2,0] 0
b[1,2,1] 0
b[1,2,2] 0
b[1,2,3] 0
b[1,2,4] 0
b[1,2,5] 0
b[1,2,6] 0
b[1,2,7] 0
b[1,2,8] 0
b[1,2,9] 0
b[1,2,10] 0
b[1,2,11] 0
b[1,2,12] 0
b[1,2,13] 0
b[1,3,0] 0
b[1,3,1] 0
b[1,3,2] 0
b[1,3,3] 0
b[1,3,4] 0
b[1,3,5] 0
b[1,3,6] 0
b[1,3,7] 0
b[1,3,8] 0
b[1,3,9] 0
b[1,3,10] 0
b[1,3,11] 0
b[1,3,12] 0
b[1,3,13] 0
b[2,0,0] 0
b[2,0,1] 0
b[2,0,2] 0
b[2,0,3] 0
b[2,0,4] 0
b[2,0,5] 0
b[2,0,6] 0
b[2,0,7] 0
b[2,0,8] 0
b[2,0,9] 0
b[2,0,10] 0
b[2,0,11] 0
b[2,0,12] 0
b[2,0,13] 0
b[2,1,0] 0
b[2,1,1] 0
b[2,1,2] 0
b[2,1,3] 0
b[2,1,4] 0
b[2,1,5] 0
b[2,1,6] 0
b[2,1,7] 0
b[2,1,8] 0
b[2,1,9] 0
b[2,1,10] 0
b[2,1,11] 0
b[2,1,12] 0
b[2,1,13] 0
b[2,2,0] 0
b[2,2,1] 0
b[2,2,2] 0
b[2,2,3] 0
b[2,2,4] 0
b[2,2,5] 0
b[2,2,6] 0
b[2,2,7] 0
b[2,2,8] 0
b[2,2,9] 0
b[2,2,10] 0
b[2,2,11] 0
b[2,2,12] 0
b[2,2,13] 0
b[2,3,0] 0
b[2,3,1] 0
b[2,3,2] 0
b[2,3,3] 0
b[2,3,4] 0
b[2,3,5] 0
b[2,3,6] 0
b[2,3,7] 0
b[2,3,8] 0
b[2,3,9] 0
b[2,3,10] 0
b[2,3,11] 0
b[2,3,12] 0
b[2,3,13] 0
b[3,0,0] 0
b[3,0,1] 0
b[3,0,2] 0
b[3,0,3] 0
b[3,0,4] 0
b[3,0,5] 0
b[3,0,6] 0
b[3,0,7] 0
b[3,0,8] 0
b[3,0,9] 0
b[3,0,10] 0
b[3,0,11] 0
b[3,0,12] 0
b[3,0,13] 0
b[3,1,0] 0
b[3,1,1] 0
b[3,1,2] 0
b[3,1,3] 0
b[3,1,4] 0
b[3,1,5] 0
b[3,1,6] 0
b[3,1,7] 0
b[3,1,8] 0
b[3,1,9] 0
b[3,1,10] 0
b[3,1,11] 0
b[3,1,12] 0
b[3,1,13] 0
b[3,2,0] 0
b[3,2,1] 0
b[3,2,2] 0
b[3,2,3] 0
b[3,2,4] 0
b[3,2,5] 0
b[3,2,6] 0
b[3,2,7] 0
b[3,2,8] 0
b[3,2,9] 0
b[3,2,10] 0
b[3,2,11] 0
b[3,2,12] 0
b[3,2,13] 0
b[3,3,0] 0
b[3,3,1] 0
b[3,3,2] 0
b[3,3,3] 0
b[3,3,4] 0
b[3,3,5] 0
b[3,3,6] 0
b[3,3,7] 0
b[3,3,8] 0
b[3,3,9] 0
b[3,3,10] 0
b[3,3,11] 0
b[3,3,12] 0
b[3,3,13] 0
sp[0,0] 2.5000000000000011e-01
sp[0,1] 0.25
sp[0,2] 2.5000000000000233e-01
sp[0,3] 2.5000000000000244e-01
sp[1,0] 0.25
sp[1,1] 2.5000000000000011e-01
sp[1,2] 0.25
sp[1,3] 0.25
sp[2,0] 2.5000000000000233e-01
sp[2,1] 0.25
sp[2,2] 0.25
sp[2,3] 0.25
sp[3,0] 2.5000000000000244e-01
sp[3,1] 0.25
sp[3,2] 0.25
sp[3,3] 0.25
d_plus[0] 4
d_plus[1] 4
d_plus[2] 4
d_plus[3] 4
p[0,0] 24
p[0,1] 24
p[0,2] 24
p[0,3] 24
p[1,0] 24
p[1,1] 24
p[1,2] 24
p[1,3] 24
p[2,0] 24
p[2,1] 24
p[2,2] 24
p[2,3] 24
p[3,0] 24
p[3,1] 24
p[3,2] 24
p[3,3] 24
t[0,0] 2.5000000000000011e-01
t[0,1] 0.25
t[0,2] 2.5000000000000233e-01
t[0,3] 2.5000000000000244e-01
t[1,0] 0.25
t[1,1] 2.5000000000000011e-01
t[1,2] 2.5000000000000266e-01
t[1,3] 2.4999999999999994e-01
t[2,0] 2.5000000000000233e-01
t[2,1] 2.4999999999999969e-01
t[2,2] 0.25
t[2,3] 2.5000000000000366e-01
t[3,0] 2.5000000000000244e-01
t[3,1] 2.4999999999999983e-01
t[3,2] 2.5000000000003175e-01
t[3,3] 0.25
h_prime[0,0] 0
h_prime[0,1] 0
h_prime[0,2] 0
h_prime[0,3] 0
h_prime[0,4] 2.8275789320469635e-01
h_prime[0,5] 0
h_prime[0,6] 0
h_prime[0,7] 0
h_prime[0,8] 0
h_prime[0,9] 0
h_prime[0,10] 1.1654739826917893e-01
h_prime[0,11] 0
h_prime[0,12] 5.1927639544010828e-01
h_prime[0,13] 0
h_prime[0,14] 4.0069405548274839e-01
h_prime[0,15] 4.4046191126108658e-01
h_prime[0,16] 0
h_prime[0,17] 0
h_prime[0,18] 1.0403810143470831e+00
h_prime[0,19] 0
h_prime[0,20] 1.3374250382184882e-01
h_prime[0,21] 0
h_prime[0,22] 0
h_prime[0,23] 1.4948120339521087e-02
h_prime[0,24] 3.7070054246578471e-01
h_prime[0,25] 6.1750260181723832e-02
h_prime[0,26] 0
h_prime[0,27] 0
h_prime[0,28] 0
h_prime[0,29] 0
h_prime[0,30] 0.393464013934141
h_prime[0,31] 0
h_prime[1,0] 0
h_prime[1,1] 0
h_prime[1,2] 0
h_prime[1,3] 0
h_prime[1,4] 2.8275789320469485e-01
h_prime[1,5] 0
h_prime[1,6] 0
h_prime[1,7] 0
h_prime[1,8] 0
h_prime[1,9] 0
h_prime[1,10] 1.1654739826917702e-01
h_prime[1,11] 0
h_prime[1,12] 5.1927639544010584e-01
h_prime[1,13] 0
h_prime[1,14] 4.0069405548274722e-01
h_prime[1,15] 4.4046191126108591e-01
h_prime[1,16] 0
h_prime[1,17] 0
h_prime[1,18] 1.0403810143470806e+00
h_prime[1,19] 0
h_prime[1,20] 1.3374250382184832e-01
h_prime[1,21] 0
h_prime[1,22] 0
h_prime[1,23] 1.4948120340705110e-02
h_prime[1,24] 0.370700542465783
h_prime[1,25] 6.1750260181724227e-02
h_prime[1,26] 0
h_prime[1,27] 0
h_prime[1,28] 0
h_prime[1,29] 0
h_prime[1,30] 3.9346401393414576e-01
h_prime[1,31] 0
h_prime[2,0] 0
h_prime[2,1] 0
h_prime[2,2] 0
h_prime[2,3] 0
h_prime[2,4] 2.8275789320469069e-01
h_prime[2,5] 0
h_prime[2,6] 0
h_prime[2,7] 0
h_prime[2,8] 0
h_prime[2,9] 0
h_prime[2,10] 1.1654739826917716e-01
h_prime[2,11] 0
h_prime[2,12] 5.1927639544010462e-01
h_prime[2,13] 0
h_prime[2,14] 4.0069405548274739e-01
h_prime[2,15] 4.4046191126108425e-01
h_prime[2,16] 0
h_prime[2,17] 0
h_prime[2,18] 1.0403810143470824e+00
h_prime[2,19] 0
h_prime[2,20] 1.3374250382185063e-01
h_prime[2,21] 0
h_prime[2,22] 0
h_prime[2,23] 1.4948120340705001e-02
h_prime[2,24] 3.7070054246578577e-01
h_prime[2,25] 6.1750260181725358e-02
h_prime[2,26] 0
h_prime[2,27] 0
h_prime[2,28] 2.4080737404119645e-13
h_prime[2,29] 0
h_prime[2,30] 3.9346401393413832e-01
h_prime[2,31] 0
h_prime[3,0] 0
h_prime[3,1] 0
h_prime[3,2] 0
h_prime[3,3] 0
h_prime[3,4] 0.282757893204697
h_prime[3,5] 0
h_prime[3,6] 0
h_prime[3,7] 0
h_prime[3,8] 0
h_prime[3,9] 0
h_prime[3,10] 1.1654739826918921e-01
h_prime[3,11] 0
h_prime[3,12] 0.519276395440108
h_prime[3,13] 0
h_prime[3,14] 4.0069405548275749e-01
h_prime[3,15] 4.4046191126108236e-01
h_prime[3,16] 0
h_prime[3,17] 0
h_prime[3,18] 1.0403810143470933e+00
h_prime[3,19] 0
h_prime[3,20] 1.3374250382185326e-01
h_prime[3,21] 0
h_prime[3,22] 0
h_prime[3,23] 1.4948120340714690e-02
h_prime[3,24] 3.7070054246579365e-01
h_prime[3,25] 6.1750260181725095e-02
h_prime[3,26] 0
h_prime[3,27] 0
h_prime[3,28] 0
h_prime[3,29] 0
h_prime[3,30] 3.9346401393413355e-01
h_prime[3,31] 0
s_0_0_GCN 4.1883608419448687e-01
z_0_0_GCN 0
s_0_1_GCN 9.1666042804718828e-01
z_0_1_GCN 0
s_0_2_GCN 2.2612135112285425e-01
z_0_2_GCN 0
s_0_3_GCN 4.2504443973303585e-01
z_0_3_GCN 0
s_0_4_GCN 0
z_0_4_GCN 1
s_0_5_GCN 0.841288328170783
z_0_5_GCN 0
s_0_6_GCN 2.6462366525083952e-01
z_0_6_GCN 0
s_0_7_GCN 4.6064728498459545e-01
z_0_7_GCN 0
s_0_8_GCN 4.1165793058462968e-01
z_0_8_GCN 0
s_0_9_GCN 0.507360100746163
z_0_9_GCN 0
s_0_10_GCN 0
z_0_10_GCN 1
s_0_11_GCN 4.5695983618498404e-01
z_0_11_GCN 0
s_0_12_GCN 0
z_0_12_GCN 1
s_0_13_GCN 3.6328725516790339e-02
z_0_13_GCN 0
s_0_14_GCN 0
z_0_14_GCN 1
s_0_15_GCN 0
z_0_15_GCN 1
s_0_16_GCN 6.2034101039171818e-01
z_0_16_GCN 0
s_0_17_GCN 3.0839179921895377e-01
z_0_17_GCN 0
s_0_18_GCN 0
z_0_18_GCN 1
s_0_19_GCN 6.8986803293228893e-01
z_0_19_GCN 0
s_0_20_GCN 0
z_0_20_GCN 1
s_0_21_GCN 4.8171231150627170e-01
z_0_21_GCN 0
s_0_22_GCN 5.4918573654140579e-01
z_0_22_GCN 0
s_0_23_GCN 0
z_0_23_GCN 1
s_0_24_GCN 0
z_0_24_GCN 1
s_0_25_GCN 0
z_0_25_GCN 1
s_0_26_GCN 4.3931365013128887e-02
z_0_26_GCN 0
s_0_27_GCN 3.2013737410306875e-01
z_0_27_GCN 0
s_0_28_GCN 5.5636197328447955e-02
z_0_28_GCN 0
s_0_29_GCN 4.7018919885159033e-01
z_0_29_GCN 0
s_0_30_GCN 0
z_0_30_GCN 1
s_0_31_GCN 5.8247859030962668e-01
z_0_31_GCN 0
s_1_0_GCN 0.418836084194485
z_1_0_GCN 0
s_1_1_GCN 9.1666042804718550e-01
z_1_1_GCN 0
s_1_2_GCN 2.2612135112285398e-01
z_1_2_GCN 0
s_1_3_GCN 4.2504443973303330e-01
z_1_3_GCN 0
s_1_4_GCN 0
z_1_4_GCN 1
s_1_5_GCN 8.4128832817078048e-01
z_1_5_GCN 0
s_1_6_GCN 2.6462366525083925e-01
z_1_6_GCN 0
s_1_7_GCN 4.6064728498459417e-01
z_1_7_GCN 0
s_1_8_GCN 4.1165793058462791e-01
z_1_8_GCN 0
s_1_9_GCN 5.0736010074616056e-01
z_1_9_GCN 0
s_1_10_GCN 0
z_1_10_GCN 1
s_1_11_GCN 4.5695983618498148e-01
z_1_11_GCN 0
s_1_12_GCN 0
z_1_12_GCN 1
s_1_13_GCN 3.6328725516791671e-02
z_1_13_GCN 0
s_1_14_GCN 0
z_1_14_GCN 1
s_1_15_GCN 0
z_1_15_GCN 1
s_1_16_GCN 6.2034101039171619e-01
z_1_16_GCN 0
s_1_17_GCN 3.0839179921895382e-01
z_1_17_GCN 0
s_1_18_GCN 0
z_1_18_GCN 1
s_1_19_GCN 6.8986803293228616e-01
z_1_19_GCN 0
s_1_20_GCN 0
z_1_20_GCN 1
s_1_21_GCN 4.8171231150627059e-01
z_1_21_GCN 0
s_1_22_GCN 5.4918573654140512e-01
z_1_22_GCN 0
s_1_23_GCN 0
z_1_23_GCN 1
s_1_24_GCN 0
z_1_24_GCN 1
s_1_25_GCN 0
z_1_25_GCN 1
s_1_26_GCN 4.3931365013128124e-02
z_1_26_GCN 0
s_1_27_GCN 3.2013737410306919e-01
z_1_27_GCN 0
s_1_28_GCN 5.5636197328442757e-02
z_1_28_GCN 0
s_1_29_GCN 4.7018919885159038e-01
z_1_29_GCN 0
s_1_30_GCN 0
z_1_30_GCN 1
s_1_31_GCN 5.8247859030962479e-01
z_1_31_GCN 0
s_2_0_GCN 4.1883608419448376e-01
z_2_0_GCN 0
s_2_1_GCN 9.1666042804718539e-01
z_2_1_GCN 0
s_2_2_GCN 2.2612135112285744e-01
z_2_2_GCN 0
s_2_3_GCN 4.2504443973303080e-01
z_2_3_GCN 0
s_2_4_GCN 0
z_2_4_GCN 1
s_2_5_GCN 8.4128832817078114e-01
z_2_5_GCN 0
s_2_6_GCN 2.6462366525083936e-01
z_2_6_GCN 0
s_2_7_GCN 4.6064728498459118e-01
z_2_7_GCN 0
s_2_8_GCN 4.1165793058462674e-01
z_2_8_GCN 0
s_2_9_GCN 5.0736010074615767e-01
z_2_9_GCN 0
s_2_10_GCN 0
z_2_10_GCN 1
s_2_11_GCN 4.5695983618498104e-01
z_2_11_GCN 0
s_2_12_GCN 0
z_2_12_GCN 1
s_2_13_GCN 3.6328725516794114e-02
z_2_13_GCN 0
s_2_14_GCN 0
z_2_14_GCN 1
s_2_15_GCN 0
z_2_15_GCN 1
s_2_16_GCN 6.2034101039171574e-01
z_2_16_GCN 0
s_2_17_GCN 3.0839179921895438e-01
z_2_17_GCN 0
s_2_18_GCN 0
z_2_18_GCN 1
s_2_19_GCN 6.8986803293228549e-01
z_2_19_GCN 0
s_2_20_GCN 0
z_2_20_GCN 1
s_2_21_GCN 4.8171231150627414e-01
z_2_21_GCN 0
s_2_22_GCN 5.4918573654140657e-01
z_2_22_GCN 0
s_2_23_GCN 0
z_2_23_GCN 1
s_2_24_GCN 0
z_2_24_GCN 1
s_2_25_GCN 0
z_2_25_GCN 1
s_2_26_GCN 4.3931365013122795e-02
z_2_26_GCN 0
s_2_27_GCN 3.2013737410307114e-01
z_2_27_GCN 0
s_2_28_GCN 5.5636197328808590e-02
z_2_28_GCN 0
s_2_29_GCN 4.7018919885158805e-01
z_2_29_GCN 0
s_2_30_GCN 0
z_2_30_GCN 1
s_2_31_GCN 5.8247859030962323e-01
z_2_31_GCN 0
s_3_0_GCN 4.1883608419448365e-01
z_3_0_GCN 0
s_3_1_GCN 9.1666042804719261e-01
z_3_1_GCN 0
s_3_2_GCN 2.2612135112286283e-01
z_3_2_GCN 0
s_3_3_GCN 4.2504443973302924e-01
z_3_3_GCN 0
s_3_4_GCN 0
z_3_4_GCN 1
s_3_5_GCN 8.4128832817078869e-01
z_3_5_GCN 0
s_3_6_GCN 2.6462366525084469e-01
z_3_6_GCN 0
s_3_7_GCN 4.6064728498460650e-01
z_3_7_GCN 0
s_3_8_GCN 4.1165793058463046e-01
z_3_8_GCN 0
s_3_9_GCN 5.0736010074615367e-01
z_3_9_GCN 0
s_3_10_GCN 0
z_3_10_GCN 1
s_3_11_GCN 4.5695983618498781e-01
z_3_11_GCN 0
s_3_12_GCN 0
z_3_12_GCN 1
s_3_13_GCN 3.6328725516795654e-02
z_3_13_GCN 0
s_3_14_GCN 0
z_3_14_GCN 1
s_3_15_GCN 0
z_3_15_GCN 1
s_3_16_GCN 6.2034101039171807e-01
z_3_16_GCN 0
s_3_17_GCN 3.0839179921895354e-01
z_3_17_GCN 0
s_3_18_GCN 0
z_3_18_GCN 1
s_3_19_GCN 6.8986803293229493e-01
z_3_19_GCN 0
s_3_20_GCN 0
z_3_20_GCN 1
s_3_21_GCN 4.8171231150628518e-01
z_3_21_GCN 0
s_3_22_GCN 5.4918573654140679e-01
z_3_22_GCN 0
s_3_23_GCN 0
z_3_23_GCN 1
s_3_24_GCN 0
z_3_24_GCN 1
s_3_25_GCN 0
z_3_25_GCN 1
s_3_26_GCN 4.3931365013119235e-02
z_3_26_GCN 0
s_3_27_GCN 3.2013737410307219e-01
z_3_27_GCN 0
s_3_28_GCN 0.0556361973285725
z_3_28_GCN 0
s_3_29_GCN 4.7018919885158439e-01
z_3_29_GCN 0
s_3_30_GCN 0
z_3_30_GCN 1
s_3_31_GCN 5.8247859030962446e-01
z_3_31_GCN 0
h[0] 0
h[1] 0
h[2] 0
h[3] 0
h[4] 1.1310315728187790e+00
h[5] 0
h[6] 0
h[7] 0
h[8] 0
h[9] 0
h[10] 4.6618959307672231e-01
h[11] 0
h[12] 2.0771055817604265e+00
h[13] 0
h[14] 1.6027762219310007e+00
h[15] 1.7618476450443392e+00
h[16] 0
h[17] 0
h[18] 4.1615240573883394e+00
h[19] 0
h[20] 5.3497001528740107e-01
h[21] 0
h[22] 0
h[23] 5.9792481361645888e-02
h[24] 1.4828021698631471e+00
h[25] 2.4700104072689852e-01
h[26] 0
h[27] 0
h[28] 0
h[29] 0
h[30] 1.5738560557365586e+00
h[31] 0
y 1.6335524303322018e+00
x_1_0_ANN 0
s_1_0_ANN 5.9824955211497888e-01
z_1_0_ANN 0
x_1_1_ANN 1.0712536762246394e-01
s_1_1_ANN 0
z_1_1_ANN 1
x_1_2_ANN 1.4765770887929573e-02
s_1_2_ANN 0
z_1_2_ANN 1
x_1_3_ANN 0
s_1_3_ANN 6.7484436481125831e-01
z_1_3_ANN 0
x_1_4_ANN 0
s_1_4_ANN 2.2381808433235928e-01
z_1_4_ANN 0
x_1_5_ANN 2.2309544480899910e+00
s_1_5_ANN 0
z_1_5_ANN 1
x_1_6_ANN 0
s_1_6_ANN 9.0529959013006334e-01
z_1_6_ANN 0
x_1_7_ANN 0
s_1_7_ANN 4.8160199164309159e-01
z_1_7_ANN 0
x_1_8_ANN 0
s_1_8_ANN 1.0884457426751343e-01
z_1_8_ANN 0
x_1_9_ANN 0
s_1_9_ANN 9.8301327457786511e-02
z_1_9_ANN 0
x_1_10_ANN 2.2496674290402807e+00
s_1_10_ANN 0
z_1_10_ANN 1
x_1_11_ANN 0
s_1_11_ANN 4.0627810603174253e-01
z_1_11_ANN 0
x_1_12_ANN 0
s_1_12_ANN 3.5700038811944013e-01
z_1_12_ANN 0
x_1_13_ANN 7.0130724976648939e-01
s_1_13_ANN 0
z_1_13_ANN 1
x_1_14_ANN 1.5636128254865467e-01
s_1_14_ANN 0
z_1_14_ANN 1
x_1_15_ANN 3.0468147776677310e+00
s_1_15_ANN 0
z_1_15_ANN 1
